(set-info :smt-lib-version 2.6)
(set-logic QF_BV)
(set-info :source |
Generated by: Maximilian A. Zinkus
Generated on: 2022-10-12
Generator: MCMPC
Application: Model counting optimization for MPC functionalities
Target solver: CryptoMinisat, Z3
|)
(set-info :license "https://creativecommons.org/licenses/by/4.0/")
(set-info :category "industrial")
(set-info :status unknown)
(declare-fun chosen_0 () Bool)
(declare-fun chosen () (_ BitVec 64))
(declare-fun chosen_1 () Bool)
(declare-fun chosen_2 () Bool)
(declare-fun chosen_3 () Bool)
(declare-fun chosen_4 () Bool)
(declare-fun chosen_5 () Bool)
(declare-fun chosen_6 () Bool)
(declare-fun chosen_7 () Bool)
(declare-fun chosen_8 () Bool)
(declare-fun chosen_9 () Bool)
(declare-fun chosen_10 () Bool)
(declare-fun chosen_11 () Bool)
(declare-fun chosen_12 () Bool)
(declare-fun chosen_13 () Bool)
(declare-fun chosen_14 () Bool)
(declare-fun chosen_15 () Bool)
(declare-fun chosen_16 () Bool)
(declare-fun chosen_17 () Bool)
(declare-fun chosen_18 () Bool)
(declare-fun chosen_19 () Bool)
(declare-fun chosen_20 () Bool)
(declare-fun chosen_21 () Bool)
(declare-fun chosen_22 () Bool)
(declare-fun chosen_23 () Bool)
(declare-fun chosen_24 () Bool)
(declare-fun chosen_25 () Bool)
(declare-fun chosen_26 () Bool)
(declare-fun chosen_27 () Bool)
(declare-fun chosen_28 () Bool)
(declare-fun chosen_29 () Bool)
(declare-fun chosen_30 () Bool)
(declare-fun chosen_31 () Bool)
(declare-fun chosen_32 () Bool)
(declare-fun chosen_33 () Bool)
(declare-fun chosen_34 () Bool)
(declare-fun chosen_35 () Bool)
(declare-fun chosen_36 () Bool)
(declare-fun chosen_37 () Bool)
(declare-fun chosen_38 () Bool)
(declare-fun chosen_39 () Bool)
(declare-fun chosen_40 () Bool)
(declare-fun chosen_41 () Bool)
(declare-fun chosen_42 () Bool)
(declare-fun chosen_43 () Bool)
(declare-fun chosen_44 () Bool)
(declare-fun chosen_45 () Bool)
(declare-fun chosen_46 () Bool)
(declare-fun chosen_47 () Bool)
(declare-fun chosen_48 () Bool)
(declare-fun chosen_49 () Bool)
(declare-fun chosen_50 () Bool)
(declare-fun chosen_51 () Bool)
(declare-fun chosen_52 () Bool)
(declare-fun chosen_53 () Bool)
(declare-fun chosen_54 () Bool)
(declare-fun chosen_55 () Bool)
(declare-fun chosen_56 () Bool)
(declare-fun chosen_57 () Bool)
(declare-fun chosen_58 () Bool)
(declare-fun chosen_59 () Bool)
(declare-fun chosen_60 () Bool)
(declare-fun chosen_61 () Bool)
(declare-fun chosen_62 () Bool)
(declare-fun chosen_63 () Bool)
(declare-fun target_0 () Bool)
(declare-fun target () (_ BitVec 64))
(declare-fun target_1 () Bool)
(declare-fun target_2 () Bool)
(declare-fun target_3 () Bool)
(declare-fun target_4 () Bool)
(declare-fun target_5 () Bool)
(declare-fun target_6 () Bool)
(declare-fun target_7 () Bool)
(declare-fun target_8 () Bool)
(declare-fun target_9 () Bool)
(declare-fun target_10 () Bool)
(declare-fun target_11 () Bool)
(declare-fun target_12 () Bool)
(declare-fun target_13 () Bool)
(declare-fun target_14 () Bool)
(declare-fun target_15 () Bool)
(declare-fun target_16 () Bool)
(declare-fun target_17 () Bool)
(declare-fun target_18 () Bool)
(declare-fun target_19 () Bool)
(declare-fun target_20 () Bool)
(declare-fun target_21 () Bool)
(declare-fun target_22 () Bool)
(declare-fun target_23 () Bool)
(declare-fun target_24 () Bool)
(declare-fun target_25 () Bool)
(declare-fun target_26 () Bool)
(declare-fun target_27 () Bool)
(declare-fun target_28 () Bool)
(declare-fun target_29 () Bool)
(declare-fun target_30 () Bool)
(declare-fun target_31 () Bool)
(declare-fun target_32 () Bool)
(declare-fun target_33 () Bool)
(declare-fun target_34 () Bool)
(declare-fun target_35 () Bool)
(declare-fun target_36 () Bool)
(declare-fun target_37 () Bool)
(declare-fun target_38 () Bool)
(declare-fun target_39 () Bool)
(declare-fun target_40 () Bool)
(declare-fun target_41 () Bool)
(declare-fun target_42 () Bool)
(declare-fun target_43 () Bool)
(declare-fun target_44 () Bool)
(declare-fun target_45 () Bool)
(declare-fun target_46 () Bool)
(declare-fun target_47 () Bool)
(declare-fun target_48 () Bool)
(declare-fun target_49 () Bool)
(declare-fun target_50 () Bool)
(declare-fun target_51 () Bool)
(declare-fun target_52 () Bool)
(declare-fun target_53 () Bool)
(declare-fun target_54 () Bool)
(declare-fun target_55 () Bool)
(declare-fun target_56 () Bool)
(declare-fun target_57 () Bool)
(declare-fun target_58 () Bool)
(declare-fun target_59 () Bool)
(declare-fun target_60 () Bool)
(declare-fun target_61 () Bool)
(declare-fun target_62 () Bool)
(declare-fun target_63 () Bool)
(declare-fun target_outcome0_t0 () (_ BitVec 64))
(declare-fun chosen_outcome0 () (_ BitVec 64))
(declare-fun target_outcome1_t0 () (_ BitVec 64))
(declare-fun chosen_outcome1 () (_ BitVec 64))
(declare-fun target_bit_0_0_bool () Bool)
(declare-fun target_bit_1_0_bool () Bool)
(assert
 (= (= (_ bv1 1) ((_ extract 0 0) chosen)) (= chosen_0 true)))
(assert
 (= (= (_ bv1 1) ((_ extract 1 1) chosen)) (= chosen_1 true)))
(assert
 (= (= (_ bv1 1) ((_ extract 2 2) chosen)) (= chosen_2 true)))
(assert
 (= (= (_ bv1 1) ((_ extract 3 3) chosen)) (= chosen_3 true)))
(assert
 (= (= (_ bv1 1) ((_ extract 4 4) chosen)) (= chosen_4 true)))
(assert
 (= (= (_ bv1 1) ((_ extract 5 5) chosen)) (= chosen_5 true)))
(assert
 (= (= (_ bv1 1) ((_ extract 6 6) chosen)) (= chosen_6 true)))
(assert
 (= (= (_ bv1 1) ((_ extract 7 7) chosen)) (= chosen_7 true)))
(assert
 (= (= (_ bv1 1) ((_ extract 8 8) chosen)) (= chosen_8 true)))
(assert
 (= (= (_ bv1 1) ((_ extract 9 9) chosen)) (= chosen_9 true)))
(assert
 (= (= (_ bv1 1) ((_ extract 10 10) chosen)) (= chosen_10 true)))
(assert
 (= (= (_ bv1 1) ((_ extract 11 11) chosen)) (= chosen_11 true)))
(assert
 (= (= (_ bv1 1) ((_ extract 12 12) chosen)) (= chosen_12 true)))
(assert
 (= (= (_ bv1 1) ((_ extract 13 13) chosen)) (= chosen_13 true)))
(assert
 (= (= (_ bv1 1) ((_ extract 14 14) chosen)) (= chosen_14 true)))
(assert
 (= (= (_ bv1 1) ((_ extract 15 15) chosen)) (= chosen_15 true)))
(assert
 (= (= (_ bv1 1) ((_ extract 16 16) chosen)) (= chosen_16 true)))
(assert
 (= (= (_ bv1 1) ((_ extract 17 17) chosen)) (= chosen_17 true)))
(assert
 (= (= (_ bv1 1) ((_ extract 18 18) chosen)) (= chosen_18 true)))
(assert
 (= (= (_ bv1 1) ((_ extract 19 19) chosen)) (= chosen_19 true)))
(assert
 (= (= (_ bv1 1) ((_ extract 20 20) chosen)) (= chosen_20 true)))
(assert
 (= (= (_ bv1 1) ((_ extract 21 21) chosen)) (= chosen_21 true)))
(assert
 (= (= (_ bv1 1) ((_ extract 22 22) chosen)) (= chosen_22 true)))
(assert
 (= (= (_ bv1 1) ((_ extract 23 23) chosen)) (= chosen_23 true)))
(assert
 (= (= (_ bv1 1) ((_ extract 24 24) chosen)) (= chosen_24 true)))
(assert
 (= (= (_ bv1 1) ((_ extract 25 25) chosen)) (= chosen_25 true)))
(assert
 (= (= (_ bv1 1) ((_ extract 26 26) chosen)) (= chosen_26 true)))
(assert
 (= (= (_ bv1 1) ((_ extract 27 27) chosen)) (= chosen_27 true)))
(assert
 (= (= (_ bv1 1) ((_ extract 28 28) chosen)) (= chosen_28 true)))
(assert
 (= (= (_ bv1 1) ((_ extract 29 29) chosen)) (= chosen_29 true)))
(assert
 (= (= (_ bv1 1) ((_ extract 30 30) chosen)) (= chosen_30 true)))
(assert
 (= (= (_ bv1 1) ((_ extract 31 31) chosen)) (= chosen_31 true)))
(assert
 (= (= (_ bv1 1) ((_ extract 32 32) chosen)) (= chosen_32 true)))
(assert
 (= (= (_ bv1 1) ((_ extract 33 33) chosen)) (= chosen_33 true)))
(assert
 (= (= (_ bv1 1) ((_ extract 34 34) chosen)) (= chosen_34 true)))
(assert
 (= (= (_ bv1 1) ((_ extract 35 35) chosen)) (= chosen_35 true)))
(assert
 (= (= (_ bv1 1) ((_ extract 36 36) chosen)) (= chosen_36 true)))
(assert
 (= (= (_ bv1 1) ((_ extract 37 37) chosen)) (= chosen_37 true)))
(assert
 (= (= (_ bv1 1) ((_ extract 38 38) chosen)) (= chosen_38 true)))
(assert
 (= (= (_ bv1 1) ((_ extract 39 39) chosen)) (= chosen_39 true)))
(assert
 (= (= (_ bv1 1) ((_ extract 40 40) chosen)) (= chosen_40 true)))
(assert
 (= (= (_ bv1 1) ((_ extract 41 41) chosen)) (= chosen_41 true)))
(assert
 (= (= (_ bv1 1) ((_ extract 42 42) chosen)) (= chosen_42 true)))
(assert
 (= (= (_ bv1 1) ((_ extract 43 43) chosen)) (= chosen_43 true)))
(assert
 (= (= (_ bv1 1) ((_ extract 44 44) chosen)) (= chosen_44 true)))
(assert
 (= (= (_ bv1 1) ((_ extract 45 45) chosen)) (= chosen_45 true)))
(assert
 (= (= (_ bv1 1) ((_ extract 46 46) chosen)) (= chosen_46 true)))
(assert
 (= (= (_ bv1 1) ((_ extract 47 47) chosen)) (= chosen_47 true)))
(assert
 (= (= (_ bv1 1) ((_ extract 48 48) chosen)) (= chosen_48 true)))
(assert
 (= (= (_ bv1 1) ((_ extract 49 49) chosen)) (= chosen_49 true)))
(assert
 (= (= (_ bv1 1) ((_ extract 50 50) chosen)) (= chosen_50 true)))
(assert
 (= (= (_ bv1 1) ((_ extract 51 51) chosen)) (= chosen_51 true)))
(assert
 (= (= (_ bv1 1) ((_ extract 52 52) chosen)) (= chosen_52 true)))
(assert
 (= (= (_ bv1 1) ((_ extract 53 53) chosen)) (= chosen_53 true)))
(assert
 (= (= (_ bv1 1) ((_ extract 54 54) chosen)) (= chosen_54 true)))
(assert
 (= (= (_ bv1 1) ((_ extract 55 55) chosen)) (= chosen_55 true)))
(assert
 (= (= (_ bv1 1) ((_ extract 56 56) chosen)) (= chosen_56 true)))
(assert
 (= (= (_ bv1 1) ((_ extract 57 57) chosen)) (= chosen_57 true)))
(assert
 (= (= (_ bv1 1) ((_ extract 58 58) chosen)) (= chosen_58 true)))
(assert
 (= (= (_ bv1 1) ((_ extract 59 59) chosen)) (= chosen_59 true)))
(assert
 (= (= (_ bv1 1) ((_ extract 60 60) chosen)) (= chosen_60 true)))
(assert
 (= (= (_ bv1 1) ((_ extract 61 61) chosen)) (= chosen_61 true)))
(assert
 (= (= (_ bv1 1) ((_ extract 62 62) chosen)) (= chosen_62 true)))
(assert
 (= (= (_ bv1 1) ((_ extract 63 63) chosen)) (= chosen_63 true)))
(assert
 (= (= (_ bv1 1) ((_ extract 0 0) target)) (= target_0 true)))
(assert
 (= (= (_ bv1 1) ((_ extract 1 1) target)) (= target_1 true)))
(assert
 (= (= (_ bv1 1) ((_ extract 2 2) target)) (= target_2 true)))
(assert
 (= (= (_ bv1 1) ((_ extract 3 3) target)) (= target_3 true)))
(assert
 (= (= (_ bv1 1) ((_ extract 4 4) target)) (= target_4 true)))
(assert
 (= (= (_ bv1 1) ((_ extract 5 5) target)) (= target_5 true)))
(assert
 (= (= (_ bv1 1) ((_ extract 6 6) target)) (= target_6 true)))
(assert
 (= (= (_ bv1 1) ((_ extract 7 7) target)) (= target_7 true)))
(assert
 (= (= (_ bv1 1) ((_ extract 8 8) target)) (= target_8 true)))
(assert
 (= (= (_ bv1 1) ((_ extract 9 9) target)) (= target_9 true)))
(assert
 (= (= (_ bv1 1) ((_ extract 10 10) target)) (= target_10 true)))
(assert
 (= (= (_ bv1 1) ((_ extract 11 11) target)) (= target_11 true)))
(assert
 (= (= (_ bv1 1) ((_ extract 12 12) target)) (= target_12 true)))
(assert
 (= (= (_ bv1 1) ((_ extract 13 13) target)) (= target_13 true)))
(assert
 (= (= (_ bv1 1) ((_ extract 14 14) target)) (= target_14 true)))
(assert
 (= (= (_ bv1 1) ((_ extract 15 15) target)) (= target_15 true)))
(assert
 (= (= (_ bv1 1) ((_ extract 16 16) target)) (= target_16 true)))
(assert
 (= (= (_ bv1 1) ((_ extract 17 17) target)) (= target_17 true)))
(assert
 (= (= (_ bv1 1) ((_ extract 18 18) target)) (= target_18 true)))
(assert
 (= (= (_ bv1 1) ((_ extract 19 19) target)) (= target_19 true)))
(assert
 (= (= (_ bv1 1) ((_ extract 20 20) target)) (= target_20 true)))
(assert
 (= (= (_ bv1 1) ((_ extract 21 21) target)) (= target_21 true)))
(assert
 (= (= (_ bv1 1) ((_ extract 22 22) target)) (= target_22 true)))
(assert
 (= (= (_ bv1 1) ((_ extract 23 23) target)) (= target_23 true)))
(assert
 (= (= (_ bv1 1) ((_ extract 24 24) target)) (= target_24 true)))
(assert
 (= (= (_ bv1 1) ((_ extract 25 25) target)) (= target_25 true)))
(assert
 (= (= (_ bv1 1) ((_ extract 26 26) target)) (= target_26 true)))
(assert
 (= (= (_ bv1 1) ((_ extract 27 27) target)) (= target_27 true)))
(assert
 (= (= (_ bv1 1) ((_ extract 28 28) target)) (= target_28 true)))
(assert
 (= (= (_ bv1 1) ((_ extract 29 29) target)) (= target_29 true)))
(assert
 (= (= (_ bv1 1) ((_ extract 30 30) target)) (= target_30 true)))
(assert
 (= (= (_ bv1 1) ((_ extract 31 31) target)) (= target_31 true)))
(assert
 (= (= (_ bv1 1) ((_ extract 32 32) target)) (= target_32 true)))
(assert
 (= (= (_ bv1 1) ((_ extract 33 33) target)) (= target_33 true)))
(assert
 (= (= (_ bv1 1) ((_ extract 34 34) target)) (= target_34 true)))
(assert
 (= (= (_ bv1 1) ((_ extract 35 35) target)) (= target_35 true)))
(assert
 (= (= (_ bv1 1) ((_ extract 36 36) target)) (= target_36 true)))
(assert
 (= (= (_ bv1 1) ((_ extract 37 37) target)) (= target_37 true)))
(assert
 (= (= (_ bv1 1) ((_ extract 38 38) target)) (= target_38 true)))
(assert
 (= (= (_ bv1 1) ((_ extract 39 39) target)) (= target_39 true)))
(assert
 (= (= (_ bv1 1) ((_ extract 40 40) target)) (= target_40 true)))
(assert
 (= (= (_ bv1 1) ((_ extract 41 41) target)) (= target_41 true)))
(assert
 (= (= (_ bv1 1) ((_ extract 42 42) target)) (= target_42 true)))
(assert
 (= (= (_ bv1 1) ((_ extract 43 43) target)) (= target_43 true)))
(assert
 (= (= (_ bv1 1) ((_ extract 44 44) target)) (= target_44 true)))
(assert
 (= (= (_ bv1 1) ((_ extract 45 45) target)) (= target_45 true)))
(assert
 (= (= (_ bv1 1) ((_ extract 46 46) target)) (= target_46 true)))
(assert
 (= (= (_ bv1 1) ((_ extract 47 47) target)) (= target_47 true)))
(assert
 (= (= (_ bv1 1) ((_ extract 48 48) target)) (= target_48 true)))
(assert
 (= (= (_ bv1 1) ((_ extract 49 49) target)) (= target_49 true)))
(assert
 (= (= (_ bv1 1) ((_ extract 50 50) target)) (= target_50 true)))
(assert
 (= (= (_ bv1 1) ((_ extract 51 51) target)) (= target_51 true)))
(assert
 (= (= (_ bv1 1) ((_ extract 52 52) target)) (= target_52 true)))
(assert
 (= (= (_ bv1 1) ((_ extract 53 53) target)) (= target_53 true)))
(assert
 (= (= (_ bv1 1) ((_ extract 54 54) target)) (= target_54 true)))
(assert
 (= (= (_ bv1 1) ((_ extract 55 55) target)) (= target_55 true)))
(assert
 (= (= (_ bv1 1) ((_ extract 56 56) target)) (= target_56 true)))
(assert
 (= (= (_ bv1 1) ((_ extract 57 57) target)) (= target_57 true)))
(assert
 (= (= (_ bv1 1) ((_ extract 58 58) target)) (= target_58 true)))
(assert
 (= (= (_ bv1 1) ((_ extract 59 59) target)) (= target_59 true)))
(assert
 (= (= (_ bv1 1) ((_ extract 60 60) target)) (= target_60 true)))
(assert
 (= (= (_ bv1 1) ((_ extract 61 61) target)) (= target_61 true)))
(assert
 (= (= (_ bv1 1) ((_ extract 62 62) target)) (= target_62 true)))
(assert
 (= (= (_ bv1 1) ((_ extract 63 63) target)) (= target_63 true)))
(assert
 (= (_ bv0 1) (ite (not (bvule chosen_outcome0 target_outcome0_t0)) (_ bv1 1) (_ bv0 1))))
(assert
 (= (_ bv1 1) (ite (not (bvule chosen_outcome1 target_outcome1_t0)) (_ bv1 1) (_ bv0 1))))
(assert
 (= (_ bv1 1) (ite (not (bvule (_ bv11008333301118683494 64) target)) (_ bv1 1) (_ bv0 1))))
(assert
 (= (_ bv1 1) (ite (not (bvule (_ bv11008333301118683494 64) target_outcome0_t0)) (_ bv1 1) (_ bv0 1))))
(assert
 (not (= (_ bv11008333301118683494 64) chosen)))
(assert
 (= (_ bv0 1) (ite (not (bvule (_ bv3040363861375477921 64) target)) (_ bv1 1) (_ bv0 1))))
(assert
 (= (_ bv0 1) (ite (not (bvule (_ bv3040363861375477921 64) target_outcome1_t0)) (_ bv1 1) (_ bv0 1))))
(assert
 (not (= (_ bv3040363861375477921 64) chosen)))
(assert
 (= (_ bv0 1) (ite (not (bvule (_ bv3354712544487000064 64) target)) (_ bv1 1) (_ bv0 1))))
(assert
 (= (_ bv0 1) (ite (not (bvule (_ bv3354712544487000064 64) target_outcome1_t0)) (_ bv1 1) (_ bv0 1))))
(assert
 (not (= (_ bv3354712544487000064 64) chosen)))
(assert
 (= (_ bv1 1) (ite (not (bvule (_ bv10141701839402517022 64) target)) (_ bv1 1) (_ bv0 1))))
(assert
 (= (_ bv1 1) (ite (not (bvule (_ bv10141701839402517022 64) target_outcome0_t0)) (_ bv1 1) (_ bv0 1))))
(assert
 (not (= (_ bv10141701839402517022 64) chosen)))
(assert
 (= (_ bv0 1) (ite (not (bvule (_ bv3558023390478684018 64) target)) (_ bv1 1) (_ bv0 1))))
(assert
 (= (_ bv0 1) (ite (not (bvule (_ bv3558023390478684018 64) target_outcome1_t0)) (_ bv1 1) (_ bv0 1))))
(assert
 (not (= (_ bv3558023390478684018 64) chosen)))
(assert
 (= (_ bv1 1) (ite (not (bvule (_ bv9827834981386404525 64) target)) (_ bv1 1) (_ bv0 1))))
(assert
 (= (_ bv1 1) (ite (not (bvule (_ bv9827834981386404525 64) target_outcome0_t0)) (_ bv1 1) (_ bv0 1))))
(assert
 (not (= (_ bv9827834981386404525 64) chosen)))
(assert
 (= (_ bv1 1) (ite (not (bvule (_ bv9395673667175737926 64) target)) (_ bv1 1) (_ bv0 1))))
(assert
 (= (_ bv1 1) (ite (not (bvule (_ bv9395673667175737926 64) target_outcome0_t0)) (_ bv1 1) (_ bv0 1))))
(assert
 (not (= (_ bv9395673667175737926 64) chosen)))
(assert
 (= (_ bv0 1) (ite (not (bvule (_ bv3832434656556067694 64) target)) (_ bv1 1) (_ bv0 1))))
(assert
 (= (_ bv0 1) (ite (not (bvule (_ bv3832434656556067694 64) target_outcome1_t0)) (_ bv1 1) (_ bv0 1))))
(assert
 (not (= (_ bv3832434656556067694 64) chosen)))
(assert
 (= (_ bv0 1) (ite (not (bvule (_ bv6882105862507854415 64) target)) (_ bv1 1) (_ bv0 1))))
(assert
 (= (_ bv0 1) (ite (not (bvule (_ bv6882105862507854415 64) target_outcome1_t0)) (_ bv1 1) (_ bv0 1))))
(assert
 (not (= (_ bv6882105862507854415 64) chosen)))
(assert
 (= (_ bv0 1) (ite (not (bvule (_ bv6967643220876578344 64) target)) (_ bv1 1) (_ bv0 1))))
(assert
 (= (_ bv0 1) (ite (not (bvule (_ bv6967643220876578344 64) target_outcome1_t0)) (_ bv1 1) (_ bv0 1))))
(assert
 (not (= (_ bv6967643220876578344 64) chosen)))
(assert
 (= (_ bv1 1) (ite (not (bvule (_ bv8199939524101957350 64) target)) (_ bv1 1) (_ bv0 1))))
(assert
 (= (_ bv1 1) (ite (not (bvule (_ bv8199939524101957350 64) target_outcome0_t0)) (_ bv1 1) (_ bv0 1))))
(assert
 (not (= (_ bv8199939524101957350 64) chosen)))
(assert
 (= (_ bv0 1) (ite (not (bvule (_ bv7603177170332651008 64) target)) (_ bv1 1) (_ bv0 1))))
(assert
 (= (_ bv0 1) (ite (not (bvule (_ bv7603177170332651008 64) target_outcome1_t0)) (_ bv1 1) (_ bv0 1))))
(assert
 (not (= (_ bv7603177170332651008 64) chosen)))
(assert
 (= (_ bv0 1) (ite (not (bvule (_ bv7849436937841922466 64) target)) (_ bv1 1) (_ bv0 1))))
(assert
 (= (_ bv0 1) (ite (not (bvule (_ bv7849436937841922466 64) target_outcome1_t0)) (_ bv1 1) (_ bv0 1))))
(assert
 (not (= (_ bv7849436937841922466 64) chosen)))
(assert
 (= (_ bv1 1) (ite (not (bvule (_ bv7893309166397547193 64) target)) (_ bv1 1) (_ bv0 1))))
(assert
 (= (_ bv1 1) (ite (not (bvule (_ bv7893309166397547193 64) target_outcome0_t0)) (_ bv1 1) (_ bv0 1))))
(assert
 (not (= (_ bv7893309166397547193 64) chosen)))
(assert
 (= (_ bv1 1) (ite (not (bvule (_ bv7890606150882090510 64) target)) (_ bv1 1) (_ bv0 1))))
(assert
 (= (_ bv1 1) (ite (not (bvule (_ bv7890606150882090510 64) target_outcome0_t0)) (_ bv1 1) (_ bv0 1))))
(assert
 (not (= (_ bv7890606150882090510 64) chosen)))
(assert
 (= (_ bv0 1) (ite (not (bvule (_ bv7862115357452771399 64) target)) (_ bv1 1) (_ bv0 1))))
(assert
 (= (_ bv0 1) (ite (not (bvule (_ bv7862115357452771399 64) target_outcome1_t0)) (_ bv1 1) (_ bv0 1))))
(assert
 (not (= (_ bv7862115357452771399 64) chosen)))
(assert
 (= (_ bv1 1) (ite (not (bvule (_ bv7879552651578525490 64) target)) (_ bv1 1) (_ bv0 1))))
(assert
 (= (_ bv1 1) (ite (not (bvule (_ bv7879552651578525490 64) target_outcome0_t0)) (_ bv1 1) (_ bv0 1))))
(assert
 (not (= (_ bv7879552651578525490 64) chosen)))
(assert
 (= (_ bv1 1) (ite (not (bvule (_ bv7873297516358035816 64) target)) (_ bv1 1) (_ bv0 1))))
(assert
 (= (_ bv1 1) (ite (not (bvule (_ bv7873297516358035816 64) target_outcome0_t0)) (_ bv1 1) (_ bv0 1))))
(assert
 (not (= (_ bv7873297516358035816 64) chosen)))
(assert
 (= (_ bv0 1) (ite (not (bvule (_ bv7865522168048354708 64) target)) (_ bv1 1) (_ bv0 1))))
(assert
 (= (_ bv0 1) (ite (not (bvule (_ bv7865522168048354708 64) target_outcome1_t0)) (_ bv1 1) (_ bv0 1))))
(assert
 (not (= (_ bv7865522168048354708 64) chosen)))
(assert
 (= (_ bv0 1) (ite (not (bvule (_ bv7868674584178550278 64) target)) (_ bv1 1) (_ bv0 1))))
(assert
 (= (_ bv0 1) (ite (not (bvule (_ bv7868674584178550278 64) target_outcome1_t0)) (_ bv1 1) (_ bv0 1))))
(assert
 (not (= (_ bv7868674584178550278 64) chosen)))
(assert
 (= (_ bv0 1) (ite (not (bvule (_ bv7869583775919277077 64) target)) (_ bv1 1) (_ bv0 1))))
(assert
 (= (_ bv0 1) (ite (not (bvule (_ bv7869583775919277077 64) target_outcome1_t0)) (_ bv1 1) (_ bv0 1))))
(assert
 (not (= (_ bv7869583775919277077 64) chosen)))
(assert
 (= (_ bv1 1) (ite (not (bvule (_ bv7872618833659176554 64) target)) (_ bv1 1) (_ bv0 1))))
(assert
 (= (_ bv1 1) (ite (not (bvule (_ bv7872618833659176554 64) target_outcome0_t0)) (_ bv1 1) (_ bv0 1))))
(assert
 (not (= (_ bv7872618833659176554 64) chosen)))
(assert
 (= (_ bv0 1) (ite (not (bvule (_ bv7869835852655295110 64) target)) (_ bv1 1) (_ bv0 1))))
(assert
 (= (_ bv0 1) (ite (not (bvule (_ bv7869835852655295110 64) target_outcome1_t0)) (_ bv1 1) (_ bv0 1))))
(assert
 (not (= (_ bv7869835852655295110 64) chosen)))
(assert
 (= (_ bv1 1) (ite (not (bvule (_ bv7872325913942737734 64) target)) (_ bv1 1) (_ bv0 1))))
(assert
 (= (_ bv1 1) (ite (not (bvule (_ bv7872325913942737734 64) target_outcome0_t0)) (_ bv1 1) (_ bv0 1))))
(assert
 (not (= (_ bv7872325913942737734 64) chosen)))
(assert
 (= (_ bv1 1) (ite (not (bvule (_ bv7870429250694802754 64) target)) (_ bv1 1) (_ bv0 1))))
(assert
 (= (_ bv1 1) (ite (not (bvule (_ bv7870429250694802754 64) target_outcome0_t0)) (_ bv1 1) (_ bv0 1))))
(assert
 (not (= (_ bv7870429250694802754 64) chosen)))
(assert
 (= (_ bv1 1) (ite (not (bvule (_ bv7870289967574898558 64) target)) (_ bv1 1) (_ bv0 1))))
(assert
 (= (_ bv1 1) (ite (not (bvule (_ bv7870289967574898558 64) target_outcome0_t0)) (_ bv1 1) (_ bv0 1))))
(assert
 (not (= (_ bv7870289967574898558 64) chosen)))
(assert
 (= (_ bv1 1) (ite (not (bvule (_ bv7870195641937123686 64) target)) (_ bv1 1) (_ bv0 1))))
(assert
 (= (_ bv1 1) (ite (not (bvule (_ bv7870195641937123686 64) target_outcome0_t0)) (_ bv1 1) (_ bv0 1))))
(assert
 (not (= (_ bv7870195641937123686 64) chosen)))
(assert
 (= (_ bv1 1) (ite (not (bvule (_ bv7870111851445486608 64) target)) (_ bv1 1) (_ bv0 1))))
(assert
 (= (_ bv1 1) (ite (not (bvule (_ bv7870111851445486608 64) target_outcome0_t0)) (_ bv1 1) (_ bv0 1))))
(assert
 (not (= (_ bv7870111851445486608 64) chosen)))
(assert
 (= (_ bv1 1) (ite (not (bvule (_ bv7870079933398188032 64) target)) (_ bv1 1) (_ bv0 1))))
(assert
 (= (_ bv1 1) (ite (not (bvule (_ bv7870079933398188032 64) target_outcome0_t0)) (_ bv1 1) (_ bv0 1))))
(assert
 (not (= (_ bv7870079933398188032 64) chosen)))
(assert
 (= (_ bv0 1) (ite (not (bvule (_ bv7869878640877970450 64) target)) (_ bv1 1) (_ bv0 1))))
(assert
 (= (_ bv0 1) (ite (not (bvule (_ bv7869878640877970450 64) target_outcome1_t0)) (_ bv1 1) (_ bv0 1))))
(assert
 (not (= (_ bv7869878640877970450 64) chosen)))
(assert
 (= (_ bv0 1) (ite (not (bvule (_ bv7869881195746557952 64) target)) (_ bv1 1) (_ bv0 1))))
(assert
 (= (_ bv0 1) (ite (not (bvule (_ bv7869881195746557952 64) target_outcome1_t0)) (_ bv1 1) (_ bv0 1))))
(assert
 (not (= (_ bv7869881195746557952 64) chosen)))
(assert
 (= (_ bv1 1) (ite (not (bvule (_ bv7869919626575920224 64) target)) (_ bv1 1) (_ bv0 1))))
(assert
 (= (_ bv1 1) (ite (not (bvule (_ bv7869919626575920224 64) target_outcome0_t0)) (_ bv1 1) (_ bv0 1))))
(assert
 (not (= (_ bv7869919626575920224 64) chosen)))
(assert
 (= (_ bv0 1) (ite (not (bvule (_ bv7869892935262117922 64) target)) (_ bv1 1) (_ bv0 1))))
(assert
 (= (_ bv0 1) (ite (not (bvule (_ bv7869892935262117922 64) target_outcome1_t0)) (_ bv1 1) (_ bv0 1))))
(assert
 (not (= (_ bv7869892935262117922 64) chosen)))
(assert
 (= (_ bv1 1) (ite (not (bvule (_ bv7869914750983220930 64) target)) (_ bv1 1) (_ bv0 1))))
(assert
 (= (_ bv1 1) (ite (not (bvule (_ bv7869914750983220930 64) target_outcome0_t0)) (_ bv1 1) (_ bv0 1))))
(assert
 (not (= (_ bv7869914750983220930 64) chosen)))
(assert
 (= (_ bv1 1) (ite (not (bvule (_ bv7869912856490586486 64) target)) (_ bv1 1) (_ bv0 1))))
(assert
 (= (_ bv1 1) (ite (not (bvule (_ bv7869912856490586486 64) target_outcome0_t0)) (_ bv1 1) (_ bv0 1))))
(assert
 (not (= (_ bv7869912856490586486 64) chosen)))
(assert
 (= (_ bv0 1) (ite (not (bvule (_ bv7869903670258318726 64) target)) (_ bv1 1) (_ bv0 1))))
(assert
 (= (_ bv0 1) (ite (not (bvule (_ bv7869903670258318726 64) target_outcome1_t0)) (_ bv1 1) (_ bv0 1))))
(assert
 (not (= (_ bv7869903670258318726 64) chosen)))
(assert
 (= (_ bv0 1) (ite (not (bvule (_ bv7869905319823406243 64) target)) (_ bv1 1) (_ bv0 1))))
(assert
 (= (_ bv0 1) (ite (not (bvule (_ bv7869905319823406243 64) target_outcome1_t0)) (_ bv1 1) (_ bv0 1))))
(assert
 (not (= (_ bv7869905319823406243 64) chosen)))
(assert
 (= (_ bv0 1) (ite (not (bvule (_ bv7869907536951338934 64) target)) (_ bv1 1) (_ bv0 1))))
(assert
 (= (_ bv0 1) (ite (not (bvule (_ bv7869907536951338934 64) target_outcome1_t0)) (_ bv1 1) (_ bv0 1))))
(assert
 (not (= (_ bv7869907536951338934 64) chosen)))
(assert
 (= (_ bv0 1) (ite (not (bvule (_ bv7869910006927430334 64) target)) (_ bv1 1) (_ bv0 1))))
(assert
 (= (_ bv0 1) (ite (not (bvule (_ bv7869910006927430334 64) target_outcome1_t0)) (_ bv1 1) (_ bv0 1))))
(assert
 (not (= (_ bv7869910006927430334 64) chosen)))
(assert
 (= (_ bv0 1) (ite (not (bvule (_ bv7869911102864300174 64) target)) (_ bv1 1) (_ bv0 1))))
(assert
 (= (_ bv0 1) (ite (not (bvule (_ bv7869911102864300174 64) target_outcome1_t0)) (_ bv1 1) (_ bv0 1))))
(assert
 (not (= (_ bv7869911102864300174 64) chosen)))
(assert
 (= (_ bv0 1) (ite (not (bvule (_ bv7869911194243984787 64) target)) (_ bv1 1) (_ bv0 1))))
(assert
 (= (_ bv0 1) (ite (not (bvule (_ bv7869911194243984787 64) target_outcome1_t0)) (_ bv1 1) (_ bv0 1))))
(assert
 (not (= (_ bv7869911194243984787 64) chosen)))
(assert
 (= (_ bv1 1) (ite (not (bvule (_ bv7869912006426954442 64) target)) (_ bv1 1) (_ bv0 1))))
(assert
 (= (_ bv1 1) (ite (not (bvule (_ bv7869912006426954442 64) target_outcome0_t0)) (_ bv1 1) (_ bv0 1))))
(assert
 (not (= (_ bv7869912006426954442 64) chosen)))
(assert
 (= (_ bv0 1) (ite (not (bvule (_ bv7869911695221024308 64) target)) (_ bv1 1) (_ bv0 1))))
(assert
 (= (_ bv0 1) (ite (not (bvule (_ bv7869911695221024308 64) target_outcome1_t0)) (_ bv1 1) (_ bv0 1))))
(assert
 (not (= (_ bv7869911695221024308 64) chosen)))
(assert
 (= (_ bv1 1) (ite (not (bvule (_ bv7869911811492004264 64) target)) (_ bv1 1) (_ bv0 1))))
(assert
 (= (_ bv1 1) (ite (not (bvule (_ bv7869911811492004264 64) target_outcome0_t0)) (_ bv1 1) (_ bv0 1))))
(assert
 (not (= (_ bv7869911811492004264 64) chosen)))
(assert
 (= (_ bv1 1) (ite (not (bvule (_ bv7869911805960026136 64) target)) (_ bv1 1) (_ bv0 1))))
(assert
 (= (_ bv1 1) (ite (not (bvule (_ bv7869911805960026136 64) target_outcome0_t0)) (_ bv1 1) (_ bv0 1))))
(assert
 (not (= (_ bv7869911805960026136 64) chosen)))
(assert
 (= (_ bv1 1) (ite (not (bvule (_ bv7869911738737373712 64) target)) (_ bv1 1) (_ bv0 1))))
(assert
 (= (_ bv1 1) (ite (not (bvule (_ bv7869911738737373712 64) target_outcome0_t0)) (_ bv1 1) (_ bv0 1))))
(assert
 (not (= (_ bv7869911738737373712 64) chosen)))
(assert
 (= (_ bv1 1) (ite (not (bvule (_ bv7869911727120311606 64) target)) (_ bv1 1) (_ bv0 1))))
(assert
 (= (_ bv1 1) (ite (not (bvule (_ bv7869911727120311606 64) target_outcome0_t0)) (_ bv1 1) (_ bv0 1))))
(assert
 (not (= (_ bv7869911727120311606 64) chosen)))
(assert
 (= (_ bv0 1) (ite (not (bvule (_ bv7869911710662558202 64) target)) (_ bv1 1) (_ bv0 1))))
(assert
 (= (_ bv0 1) (ite (not (bvule (_ bv7869911710662558202 64) target_outcome1_t0)) (_ bv1 1) (_ bv0 1))))
(assert
 (not (= (_ bv7869911710662558202 64) chosen)))
(assert
 (= (_ bv1 1) (ite (not (bvule (_ bv7869911723149361152 64) target)) (_ bv1 1) (_ bv0 1))))
(assert
 (= (_ bv1 1) (ite (not (bvule (_ bv7869911723149361152 64) target_outcome0_t0)) (_ bv1 1) (_ bv0 1))))
(assert
 (not (= (_ bv7869911723149361152 64) chosen)))
(assert
 (= (_ bv1 1) (ite (not (bvule (_ bv7869911717994662305 64) target)) (_ bv1 1) (_ bv0 1))))
(assert
 (= (_ bv1 1) (ite (not (bvule (_ bv7869911717994662305 64) target_outcome0_t0)) (_ bv1 1) (_ bv0 1))))
(assert
 (not (= (_ bv7869911717994662305 64) chosen)))
(assert
 (= (_ bv1 1) (ite (not (bvule (_ bv7869911711749037031 64) target)) (_ bv1 1) (_ bv0 1))))
(assert
 (= (_ bv1 1) (ite (not (bvule (_ bv7869911711749037031 64) target_outcome0_t0)) (_ bv1 1) (_ bv0 1))))
(assert
 (not (= (_ bv7869911711749037031 64) chosen)))
(assert
 (= (_ bv0 1) (ite (not (bvule (_ bv7869911711382135424 64) target)) (_ bv1 1) (_ bv0 1))))
(assert
 (= (_ bv0 1) (ite (not (bvule (_ bv7869911711382135424 64) target_outcome1_t0)) (_ bv1 1) (_ bv0 1))))
(assert
 (not (= (_ bv7869911711382135424 64) chosen)))
(assert
 (= (_ bv1 1) (ite (not (bvule (_ bv7869911711623912430 64) target)) (_ bv1 1) (_ bv0 1))))
(assert
 (= (_ bv1 1) (ite (not (bvule (_ bv7869911711623912430 64) target_outcome0_t0)) (_ bv1 1) (_ bv0 1))))
(assert
 (not (= (_ bv7869911711623912430 64) chosen)))
(assert
 (= (_ bv1 1) (ite (not (bvule (_ bv7869911711577753484 64) target)) (_ bv1 1) (_ bv0 1))))
(assert
 (= (_ bv1 1) (ite (not (bvule (_ bv7869911711577753484 64) target_outcome0_t0)) (_ bv1 1) (_ bv0 1))))
(assert
 (not (= (_ bv7869911711577753484 64) chosen)))
(assert
 (= (_ bv1 1) (ite (not (bvule (_ bv7869911711575982164 64) target)) (_ bv1 1) (_ bv0 1))))
(assert
 (= (_ bv1 1) (ite (not (bvule (_ bv7869911711575982164 64) target_outcome0_t0)) (_ bv1 1) (_ bv0 1))))
(assert
 (not (= (_ bv7869911711575982164 64) chosen)))
(assert
 (= (_ bv0 1) (ite (not (bvule (_ bv7869911711562179822 64) target)) (_ bv1 1) (_ bv0 1))))
(assert
 (= (_ bv0 1) (ite (not (bvule (_ bv7869911711562179822 64) target_outcome1_t0)) (_ bv1 1) (_ bv0 1))))
(assert
 (not (= (_ bv7869911711562179822 64) chosen)))
(assert
 (= (_ bv1 1) (ite (not (bvule (_ bv7869911711575422485 64) target)) (_ bv1 1) (_ bv0 1))))
(assert
 (= (_ bv1 1) (ite (not (bvule (_ bv7869911711575422485 64) target_outcome0_t0)) (_ bv1 1) (_ bv0 1))))
(assert
 (not (= (_ bv7869911711575422485 64) chosen)))
(assert
 (= (_ bv1 1) (ite (not (bvule (_ bv7869911711564829580 64) target)) (_ bv1 1) (_ bv0 1))))
(assert
 (= (_ bv1 1) (ite (not (bvule (_ bv7869911711564829580 64) target_outcome0_t0)) (_ bv1 1) (_ bv0 1))))
(assert
 (not (= (_ bv7869911711564829580 64) chosen)))
(assert
 (= (_ bv0 1) (ite (not (bvule (_ bv7869911711563682592 64) target)) (_ bv1 1) (_ bv0 1))))
(assert
 (= (_ bv0 1) (ite (not (bvule (_ bv7869911711563682592 64) target_outcome1_t0)) (_ bv1 1) (_ bv0 1))))
(assert
 (not (= (_ bv7869911711563682592 64) chosen)))
(assert
 (= (_ bv1 1) (ite (not (bvule (_ bv7869911711564700022 64) target)) (_ bv1 1) (_ bv0 1))))
(assert
 (= (_ bv1 1) (ite (not (bvule (_ bv7869911711564700022 64) target_outcome0_t0)) (_ bv1 1) (_ bv0 1))))
(assert
 (not (= (_ bv7869911711564700022 64) chosen)))
(assert
 (= (_ bv1 1) (ite (not (bvule (_ bv7869911711563908454 64) target)) (_ bv1 1) (_ bv0 1))))
(assert
 (= (_ bv1 1) (ite (not (bvule (_ bv7869911711563908454 64) target_outcome0_t0)) (_ bv1 1) (_ bv0 1))))
(assert
 (not (= (_ bv7869911711563908454 64) chosen)))
(assert
 (= (_ bv0 1) (ite (not (bvule (_ bv7869911711563726464 64) target)) (_ bv1 1) (_ bv0 1))))
(assert
 (= (_ bv0 1) (ite (not (bvule (_ bv7869911711563726464 64) target_outcome1_t0)) (_ bv1 1) (_ bv0 1))))
(assert
 (not (= (_ bv7869911711563726464 64) chosen)))
(assert
 (= (_ bv0 1) (ite (not (bvule (_ bv7869911711563752401 64) target)) (_ bv1 1) (_ bv0 1))))
(assert
 (= (_ bv0 1) (ite (not (bvule (_ bv7869911711563752401 64) target_outcome1_t0)) (_ bv1 1) (_ bv0 1))))
(assert
 (not (= (_ bv7869911711563752401 64) chosen)))
(assert
 (= (_ bv0 1) (ite (not (bvule (_ bv7869911711563840715 64) target)) (_ bv1 1) (_ bv0 1))))
(assert
 (= (_ bv0 1) (ite (not (bvule (_ bv7869911711563840715 64) target_outcome1_t0)) (_ bv1 1) (_ bv0 1))))
(assert
 (not (= (_ bv7869911711563840715 64) chosen)))
(assert
 (= (_ bv1 1) (ite (not (bvule (_ bv7869911711563895858 64) target)) (_ bv1 1) (_ bv0 1))))
(assert
 (= (_ bv1 1) (ite (not (bvule (_ bv7869911711563895858 64) target_outcome0_t0)) (_ bv1 1) (_ bv0 1))))
(assert
 (not (= (_ bv7869911711563895858 64) chosen)))
(assert
 (= (_ bv1 1) (ite (not (bvule (_ bv7869911711563859244 64) target)) (_ bv1 1) (_ bv0 1))))
(assert
 (= (_ bv1 1) (ite (not (bvule (_ bv7869911711563859244 64) target_outcome0_t0)) (_ bv1 1) (_ bv0 1))))
(assert
 (not (= (_ bv7869911711563859244 64) chosen)))
(assert
 (= (_ bv0 1) (ite (not (bvule (_ bv7869911711563851798 64) target)) (_ bv1 1) (_ bv0 1))))
(assert
 (= (_ bv0 1) (ite (not (bvule (_ bv7869911711563851798 64) target_outcome1_t0)) (_ bv1 1) (_ bv0 1))))
(assert
 (not (= (_ bv7869911711563851798 64) chosen)))
(assert
 (= (_ bv0 1) (ite (not (bvule (_ bv7869911711563854064 64) target)) (_ bv1 1) (_ bv0 1))))
(assert
 (= (_ bv0 1) (ite (not (bvule (_ bv7869911711563854064 64) target_outcome1_t0)) (_ bv1 1) (_ bv0 1))))
(assert
 (not (= (_ bv7869911711563854064 64) chosen)))
(assert
 (= (_ bv0 1) (ite (not (bvule (_ bv7869911711563854274 64) target)) (_ bv1 1) (_ bv0 1))))
(assert
 (= (_ bv0 1) (ite (not (bvule (_ bv7869911711563854274 64) target_outcome1_t0)) (_ bv1 1) (_ bv0 1))))
(assert
 (not (= (_ bv7869911711563854274 64) chosen)))
(assert
 (= (_ bv0 1) (ite (not (bvule (_ bv7869911711563854520 64) target)) (_ bv1 1) (_ bv0 1))))
(assert
 (= (_ bv0 1) (ite (not (bvule (_ bv7869911711563854520 64) target_outcome1_t0)) (_ bv1 1) (_ bv0 1))))
(assert
 (not (= (_ bv7869911711563854520 64) chosen)))
(assert
 (= (_ bv0 1) (ite (not (bvule (_ bv7869911711563855320 64) target)) (_ bv1 1) (_ bv0 1))))
(assert
 (= (_ bv0 1) (ite (not (bvule (_ bv7869911711563855320 64) target_outcome1_t0)) (_ bv1 1) (_ bv0 1))))
(assert
 (not (= (_ bv7869911711563855320 64) chosen)))
(assert
 (= (_ bv1 1) (ite (not (bvule (_ bv7869911711563858282 64) target)) (_ bv1 1) (_ bv0 1))))
(assert
 (= (_ bv1 1) (ite (not (bvule (_ bv7869911711563858282 64) target_outcome0_t0)) (_ bv1 1) (_ bv0 1))))
(assert
 (not (= (_ bv7869911711563858282 64) chosen)))
(assert
 (= (_ bv0 1) (ite (not (bvule (_ bv7869911711563856149 64) target)) (_ bv1 1) (_ bv0 1))))
(assert
 (= (_ bv0 1) (ite (not (bvule (_ bv7869911711563856149 64) target_outcome1_t0)) (_ bv1 1) (_ bv0 1))))
(assert
 (not (= (_ bv7869911711563856149 64) chosen)))
(assert
 (= (_ bv0 1) (ite (not (bvule (_ bv7869911711563857122 64) target)) (_ bv1 1) (_ bv0 1))))
(assert
 (= (_ bv0 1) (ite (not (bvule (_ bv7869911711563857122 64) target_outcome1_t0)) (_ bv1 1) (_ bv0 1))))
(assert
 (not (= (_ bv7869911711563857122 64) chosen)))
(assert
 (= (_ bv1 1) (ite (not (bvule (_ bv7869911711563858096 64) target)) (_ bv1 1) (_ bv0 1))))
(assert
 (= (_ bv1 1) (ite (not (bvule (_ bv7869911711563858096 64) target_outcome0_t0)) (_ bv1 1) (_ bv0 1))))
(assert
 (not (= (_ bv7869911711563858096 64) chosen)))
(assert
 (= (_ bv0 1) (ite (not (bvule (_ bv7869911711563857304 64) target)) (_ bv1 1) (_ bv0 1))))
(assert
 (= (_ bv0 1) (ite (not (bvule (_ bv7869911711563857304 64) target_outcome1_t0)) (_ bv1 1) (_ bv0 1))))
(assert
 (not (= (_ bv7869911711563857304 64) chosen)))
(assert
 (= (_ bv0 1) (ite (not (bvule (_ bv7869911711563857388 64) target)) (_ bv1 1) (_ bv0 1))))
(assert
 (= (_ bv0 1) (ite (not (bvule (_ bv7869911711563857388 64) target_outcome1_t0)) (_ bv1 1) (_ bv0 1))))
(assert
 (not (= (_ bv7869911711563857388 64) chosen)))
(assert
 (= (_ bv1 1) (ite (not (bvule (_ bv7869911711563857902 64) target)) (_ bv1 1) (_ bv0 1))))
(assert
 (= (_ bv1 1) (ite (not (bvule (_ bv7869911711563857902 64) target_outcome0_t0)) (_ bv1 1) (_ bv0 1))))
(assert
 (not (= (_ bv7869911711563857902 64) chosen)))
(assert
 (= (_ bv1 1) (ite (not (bvule (_ bv7869911711563857812 64) target)) (_ bv1 1) (_ bv0 1))))
(assert
 (= (_ bv1 1) (ite (not (bvule (_ bv7869911711563857812 64) target_outcome0_t0)) (_ bv1 1) (_ bv0 1))))
(assert
 (not (= (_ bv7869911711563857812 64) chosen)))
(assert
 (= (_ bv0 1) (ite (not (bvule (_ bv7869911711563857391 64) target)) (_ bv1 1) (_ bv0 1))))
(assert
 (= (_ bv0 1) (ite (not (bvule (_ bv7869911711563857391 64) target_outcome1_t0)) (_ bv1 1) (_ bv0 1))))
(assert
 (not (= (_ bv7869911711563857391 64) chosen)))
(assert
 (= (_ bv1 1) (ite (not (bvule (_ bv7869911711563857554 64) target)) (_ bv1 1) (_ bv0 1))))
(assert
 (= (_ bv1 1) (ite (not (bvule (_ bv7869911711563857554 64) target_outcome0_t0)) (_ bv1 1) (_ bv0 1))))
(assert
 (not (= (_ bv7869911711563857554 64) chosen)))
(assert
 (= (_ bv1 1) (ite (not (bvule (_ bv7869911711563857518 64) target)) (_ bv1 1) (_ bv0 1))))
(assert
 (= (_ bv1 1) (ite (not (bvule (_ bv7869911711563857518 64) target_outcome0_t0)) (_ bv1 1) (_ bv0 1))))
(assert
 (not (= (_ bv7869911711563857518 64) chosen)))
(assert
 (= (_ bv0 1) (ite (not (bvule (_ bv7869911711563857398 64) target)) (_ bv1 1) (_ bv0 1))))
(assert
 (= (_ bv0 1) (ite (not (bvule (_ bv7869911711563857398 64) target_outcome1_t0)) (_ bv1 1) (_ bv0 1))))
(assert
 (not (= (_ bv7869911711563857398 64) chosen)))
(assert
 (= (_ bv0 1) (ite (not (bvule (_ bv7869911711563857462 64) target)) (_ bv1 1) (_ bv0 1))))
(assert
 (= (_ bv0 1) (ite (not (bvule (_ bv7869911711563857462 64) target_outcome1_t0)) (_ bv1 1) (_ bv0 1))))
(assert
 (not (= (_ bv7869911711563857462 64) chosen)))
(assert
 (= (_ bv0 1) (ite (not (bvule (_ bv7869911711563857472 64) target)) (_ bv1 1) (_ bv0 1))))
(assert
 (= (_ bv0 1) (ite (not (bvule (_ bv7869911711563857472 64) target_outcome1_t0)) (_ bv1 1) (_ bv0 1))))
(assert
 (not (= (_ bv7869911711563857472 64) chosen)))
(assert
 (= (_ bv0 1) (ite (not (bvule (_ bv7869911711563857509 64) target)) (_ bv1 1) (_ bv0 1))))
(assert
 (= (_ bv0 1) (ite (not (bvule (_ bv7869911711563857509 64) target_outcome1_t0)) (_ bv1 1) (_ bv0 1))))
(assert
 (not (= (_ bv7869911711563857509 64) chosen)))
(assert
 (= (_ bv0 1) (ite (not (bvule (_ bv7869911711563857511 64) target)) (_ bv1 1) (_ bv0 1))))
(assert
 (= (_ bv0 1) (ite (not (bvule (_ bv7869911711563857511 64) target_outcome1_t0)) (_ bv1 1) (_ bv0 1))))
(assert
 (not (= (_ bv7869911711563857511 64) chosen)))
(assert
 (= (_ bv0 1) (ite (not (bvule (_ bv7869911711563857514 64) target)) (_ bv1 1) (_ bv0 1))))
(assert
 (= (_ bv0 1) (ite (not (bvule (_ bv7869911711563857514 64) target_outcome1_t0)) (_ bv1 1) (_ bv0 1))))
(assert
 (not (= (_ bv7869911711563857514 64) chosen)))
(assert
 (= (_ bv1 1) (ite (not (bvule (_ bv7869911711563857516 64) target)) (_ bv1 1) (_ bv0 1))))
(assert
 (= (_ bv1 1) (ite (not (bvule (_ bv7869911711563857516 64) target_outcome0_t0)) (_ bv1 1) (_ bv0 1))))
(assert
 (not (= (_ bv7869911711563857516 64) chosen)))
(assert
 (= chosen chosen_outcome0))
(assert
 (= chosen chosen_outcome1))
(assert
 (= (= (_ bv1 1) ((_ extract 0 0) target_outcome0_t0)) (= target_bit_0_0_bool true)))
(assert
 (= (= (_ bv1 1) ((_ extract 0 0) target_outcome1_t0)) (= target_bit_1_0_bool true)))
(check-sat)
(exit)